proyfinal/src/viki/013/experimentInOfficeAgust.take6.output/f0edf523-fafb-4998-81c2-3873584d1384.als.out
Reading from standard input... Use '--help' for help.
============================[ Problem Statistics ]=============================
|                                                                             |
|  Number of variables:         87638                                         |
|  Number of clauses:          161767                                         |
|  Parse time:                   0.04 s                                       |
|                                                                             |
============================[ Search Statistics ]==============================
| Conflicts |          ORIGINAL         |          LEARNT          | Progress |
|           |    Vars  Clauses Literals |    Limit  Clauses Lit/Cl |          |
===============================================================================
|       100 |   61854   103463   258053 |    37936      100      7 | 29.421 % |
|       250 |   61854   103463   258053 |    41730      250     30 | 29.421 % |
|       475 |   61854   103463   258053 |    45903      475     31 | 29.421 % |
|       812 |   61854   103463   258053 |    50493      812     47 | 29.421 % |
|      1318 |   61622   103397   257900 |    55542     1315     68 | 29.686 % |
|      2077 |   61603   102457   255623 |    61097     2057     69 | 29.707 % |
|      3216 |   61603   102457   255623 |    67206     3196     80 | 29.707 % |
|      4924 |   50654    69791   175628 |    73927     4774     69 | 42.201 % |
|      7486 |   50400    68819   173354 |    81320     7278     62 | 42.491 % |
|     11330 |   50286    68236   172047 |    89452    10351     55 | 42.621 % |
===============================================================================
restarts              : 62
conflicts             : 15403          (8702 /sec)
decisions             : 45556          (0.00 % random) (25738 /sec)
propagations          : 18455550       (10427053 /sec)
conflict literals     : 804125         (43.49 % deleted)
Memory used           : 32.22 MB
CPU time              : 1.76997 s

UNSATISFIABLE
